! RI BP86 def2-TZVP def2/J D3BJ TIGHTSCF Opt

* xyz 0 1
C     -2.284417    1.466079    0.000000
C     -2.327108   -0.045376    0.000001
H     -3.181163    1.875933    0.474222
H     -1.409241    1.825886    0.549206
H     -2.230290    1.849075   -1.023428
H     -2.381235   -0.428371    1.023429
H     -3.202283   -0.405182   -0.549205
H     -1.430361   -0.455230   -0.474221
*
